NAME : problems/40-tsp/instance-12.tsp
COMMENT : No Comment
TYPE : TSP
DIMENSION: 40
EDGE_WEIGHT_TYPE : EUC_2D
NODE_COORD_SECTION
1 5725 401 
2 6409 8193 
3 7040 6906 
4 3204 3141 
5 2406 60 
6 4941 3524 
7 2607 426 
8 9054 8464 
9 5811 3285 
10 4121 8944 
11 4683 3236 
12 8168 8141 
13 3312 7203 
14 7993 4423 
15 4608 9611 
16 1661 7426 
17 9786 2500 
18 8575 7811 
19 5437 6788 
20 7309 9801 
21 2991 7505 
22 9061 9603 
23 5047 5459 
24 7766 3963 
25 1737 8200 
26 307 7524 
27 5560 7875 
28 7817 1183 
29 3371 4908 
30 6802 215 
31 1946 5493 
32 5813 981 
33 2781 873 
34 5564 8119 
35 5560 527 
36 4656 1761 
37 2268 7887 
38 2248 2205 
39 7193 5544 
40 7522 7450 
EOF
